69
1 0 19
2 0 14
2 1 17
3 0 4
3 1 13
3 2 5
4 0 7
4 1 14
4 2 7
4 3 9
5 0 22
5 1 6
5 2 13
5 3 15
5 4 7
6 0 20
6 1 16
6 2 6
6 3 23
6 4 10
6 5 5
7 0 4
7 1 1
7 2 21
7 3 6
7 4 11
7 5 22
7 6 23
8 0 5
8 1 1
8 2 16
8 3 12
8 4 15
8 5 3
8 6 17
8 7 3
9 0 14
9 1 15
9 2 8
9 3 17
9 4 3
9 5 8
9 6 2
9 7 15
9 8 18
10 0 7
10 1 10
10 2 7
10 3 2
10 4 15
10 5 15
10 6 12
10 7 12
10 8 7
10 9 6
11 0 20
11 1 4
11 2 20
11 3 12
11 4 4
11 5 12
11 6 16
11 7 13
11 8 5
11 9 19
11 10 3
12 0 19
12 1 20
12 2 16
12 3 7
12 4 23
12 5 7
12 6 20
12 7 19
12 8 7
12 9 14
12 10 22
12 11 15
13 0 4
13 1 17
13 2 8
13 3 12
13 4 20
13 5 9
13 6 23
13 7 17
13 8 17
13 9 4
13 10 18
13 11 4
13 12 9
14 0 18
14 1 8
14 2 2
14 3 2
14 4 22
14 5 13
14 6 9
14 7 7
14 8 16
14 9 14
14 10 9
14 11 23
14 12 18
14 13 15
15 0 10
15 1 13
15 2 23
15 3 18
15 4 13
15 5 21
15 6 12
15 7 8
15 8 19
15 9 6
15 10 22
15 11 19
15 12 10
15 13 3
15 14 1
16 0 23
16 1 17
16 2 19
16 3 9
16 4 8
16 5 19
16 6 22
16 7 10
16 8 15
16 9 1
16 10 13
16 11 1
16 12 16
16 13 22
16 14 2
16 15 22
17 0 14
17 1 10
17 2 23
17 3 7
17 4 17
17 5 15
17 6 16
17 7 9
17 8 20
17 9 17
17 10 15
17 11 9
17 12 8
17 13 22
17 14 7
17 15 11
17 16 12
18 0 13
18 1 9
18 2 19
18 3 17
18 4 22
18 5 10
18 6 4
18 7 6
18 8 3
18 9 6
18 10 5
18 11 3
18 12 11
18 13 4
18 14 14
18 15 5
18 16 8
18 17 1
19 0 15
19 1 10
19 2 23
19 3 4
19 4 8
19 5 18
19 6 1
19 7 1
19 8 3
19 9 8
19 10 4
19 11 6
19 12 16
19 13 23
19 14 17
19 15 21
19 16 12
19 17 7
19 18 21
20 0 16
20 1 6
20 2 4
20 3 6
20 4 11
20 5 20
20 6 23
20 7 16
20 8 9
20 9 3
20 10 12
20 11 16
20 12 12
20 13 5
20 14 17
20 15 15
20 16 21
20 17 3
20 18 5
20 19 1
21 0 1
21 1 8
21 2 1
21 3 23
21 4 8
21 5 23
21 6 23
21 7 5
21 8 18
21 9 11
21 10 17
21 11 21
21 12 16
21 13 18
21 14 5
21 15 4
21 16 17
21 17 20
21 18 13
21 19 2
21 20 8
22 0 8
22 1 2
22 2 17
22 3 22
22 4 20
22 5 20
22 6 11
22 7 10
22 8 23
22 9 18
22 10 22
22 11 19
22 12 15
22 13 11
22 14 21
22 15 11
22 16 8
22 17 10
22 18 6
22 19 2
22 20 19
22 21 14
23 0 18
23 1 12
23 2 18
23 3 23
23 4 14
23 5 11
23 6 16
23 7 7
23 8 13
23 9 9
23 10 22
23 11 7
23 12 21
23 13 13
23 14 1
23 15 14
23 16 15
23 17 9
23 18 8
23 19 13
23 20 19
23 21 9
23 22 16
24 0 9
24 1 16
24 2 7
24 3 19
24 4 11
24 5 11
24 6 18
24 7 6
24 8 16
24 9 11
24 10 11
24 11 16
24 12 9
24 13 17
24 14 20
24 15 9
24 16 2
24 17 5
24 18 10
24 19 7
24 20 10
24 21 15
24 22 10
24 23 3
25 0 11
25 1 9
25 2 18
25 3 8
25 4 10
25 5 22
25 6 16
25 7 23
25 8 13
25 9 3
25 10 6
25 11 16
25 12 18
25 13 1
25 14 16
25 15 3
25 16 23
25 17 20
25 18 6
25 19 3
25 20 13
25 21 23
25 22 3
25 23 1
25 24 9
26 0 19
26 1 11
26 2 1
26 3 21
26 4 22
26 5 19
26 6 7
26 7 19
26 8 13
26 9 1
26 10 13
26 11 2
26 12 18
26 13 19
26 14 8
26 15 22
26 16 11
26 17 19
26 18 17
26 19 19
26 20 17
26 21 22
26 22 16
26 23 23
26 24 8
26 25 3
27 0 8
27 1 2
27 2 14
27 3 16
27 4 9
27 5 10
27 6 16
27 7 12
27 8 17
27 9 9
27 10 4
27 11 4
27 12 5
27 13 23
27 14 11
27 15 5
27 16 19
27 17 8
27 18 7
27 19 3
27 20 16
27 21 18
27 22 9
27 23 14
27 24 21
27 25 17
27 26 7
28 0 19
28 1 22
28 2 18
28 3 9
28 4 23
28 5 3
28 6 5
28 7 9
28 8 7
28 9 15
28 10 6
28 11 3
28 12 19
28 13 12
28 14 21
28 15 10
28 16 6
28 17 10
28 18 12
28 19 8
28 20 5
28 21 11
28 22 2
28 23 21
28 24 7
28 25 14
28 26 17
28 27 8
29 0 13
29 1 5
29 2 17
29 3 6
29 4 5
29 5 7
29 6 3
29 7 10
29 8 15
29 9 9
29 10 20
29 11 5
29 12 7
29 13 23
29 14 23
29 15 5
29 16 2
29 17 20
29 18 2
29 19 12
29 20 10
29 21 7
29 22 8
29 23 2
29 24 18
29 25 13
29 26 16
29 27 23
29 28 16
30 0 2
30 1 5
30 2 10
30 3 2
30 4 4
30 5 4
30 6 13
30 7 12
30 8 6
30 9 18
30 10 8
30 11 21
30 12 16
30 13 1
30 14 19
30 15 13
30 16 10
30 17 23
30 18 11
30 19 10
30 20 1
30 21 6
30 22 11
30 23 18
30 24 13
30 25 17
30 26 21
30 27 17
30 28 21
30 29 22
31 0 13
31 1 8
31 2 4
31 3 6
31 4 23
31 5 5
31 6 14
31 7 14
31 8 6
31 9 22
31 10 20
31 11 13
31 12 1
31 13 18
31 14 1
31 15 16
31 16 10
31 17 20
31 18 5
31 19 20
31 20 10
31 21 19
31 22 23
31 23 14
31 24 5
31 25 5
31 26 20
31 27 18
31 28 22
31 29 6
31 30 7
32 0 8
32 1 21
32 2 6
32 3 14
32 4 21
32 5 3
32 6 18
32 7 3
32 8 4
32 9 22
32 10 15
32 11 14
32 12 9
32 13 8
32 14 11
32 15 10
32 16 2
32 17 7
32 18 20
32 19 13
32 20 19
32 21 7
32 22 2
32 23 19
32 24 9
32 25 2
32 26 15
32 27 16
32 28 5
32 29 3
32 30 20
32 31 18
33 0 4
33 1 7
33 2 9
33 3 9
33 4 7
33 5 14
33 6 12
33 7 22
33 8 12
33 9 18
33 10 19
33 11 1
33 12 16
33 13 12
33 14 19
33 15 17
33 16 19
33 17 15
33 18 9
33 19 13
33 20 17
33 21 16
33 22 21
33 23 10
33 24 1
33 25 19
33 26 3
33 27 17
33 28 19
33 29 9
33 30 14
33 31 11
33 32 16
34 0 14
34 1 22
34 2 12
34 3 18
34 4 7
34 5 9
34 6 13
34 7 2
34 8 19
34 9 22
34 10 6
34 11 10
34 12 20
34 13 6
34 14 23
34 15 3
34 16 23
34 17 14
34 18 9
34 19 6
34 20 6
34 21 8
34 22 10
34 23 6
34 24 19
34 25 1
34 26 17
34 27 12
34 28 20
34 29 6
34 30 5
34 31 7
34 32 23
34 33 12
35 0 19
35 1 3
35 2 1
35 3 9
35 4 3
35 5 6
35 6 20
35 7 21
35 8 17
35 9 3
35 10 12
35 11 22
35 12 10
35 13 20
35 14 22
35 15 1
35 16 9
35 17 23
35 18 8
35 19 15
35 20 11
35 21 8
35 22 3
35 23 6
35 24 1
35 25 8
35 26 3
35 27 12
35 28 3
35 29 16
35 30 12
35 31 4
35 32 4
35 33 15
35 34 1
36 0 3
36 1 13
36 2 11
36 3 1
36 4 2
36 5 20
36 6 7
36 7 23
36 8 1
36 9 19
36 10 20
36 11 22
36 12 19
36 13 10
36 14 18
36 15 12
36 16 15
36 17 3
36 18 4
36 19 21
36 20 7
36 21 7
36 22 21
36 23 1
36 24 1
36 25 9
36 26 23
36 27 19
36 28 15
36 29 14
36 30 8
36 31 18
36 32 15
36 33 17
36 34 9
36 35 11
37 0 15
37 1 18
37 2 9
37 3 21
37 4 19
37 5 9
37 6 19
37 7 19
37 8 19
37 9 16
37 10 16
37 11 10
37 12 17
37 13 11
37 14 12
37 15 3
37 16 11
37 17 4
37 18 8
37 19 8
37 20 16
37 21 20
37 22 22
37 23 19
37 24 12
37 25 17
37 26 4
37 27 11
37 28 19
37 29 11
37 30 1
37 31 21
37 32 12
37 33 19
37 34 23
37 35 15
37 36 19
38 0 6
38 1 18
38 2 9
38 3 21
38 4 9
38 5 5
38 6 10
38 7 4
38 8 14
38 9 1
38 10 6
38 11 1
38 12 21
38 13 13
38 14 10
38 15 17
38 16 16
38 17 23
38 18 7
38 19 9
38 20 8
38 21 1
38 22 21
38 23 7
38 24 2
38 25 2
38 26 11
38 27 18
38 28 5
38 29 1
38 30 20
38 31 22
38 32 7
38 33 23
38 34 7
38 35 21
38 36 6
38 37 10
39 0 2
39 1 4
39 2 15
39 3 12
39 4 21
39 5 6
39 6 23
39 7 6
39 8 19
39 9 19
39 10 1
39 11 14
39 12 12
39 13 20
39 14 8
39 15 1
39 16 20
39 17 19
39 18 22
39 19 18
39 20 3
39 21 15
39 22 22
39 23 22
39 24 9
39 25 16
39 26 14
39 27 6
39 28 13
39 29 20
39 30 7
39 31 8
39 32 20
39 33 1
39 34 2
39 35 2
39 36 11
39 37 17
39 38 20
40 0 7
40 1 21
40 2 8
40 3 15
40 4 5
40 5 3
40 6 1
40 7 2
40 8 15
40 9 1
40 10 8
40 11 8
40 12 8
40 13 14
40 14 14
40 15 2
40 16 16
40 17 16
40 18 9
40 19 6
40 20 23
40 21 2
40 22 7
40 23 10
40 24 15
40 25 1
40 26 7
40 27 11
40 28 6
40 29 18
40 30 13
40 31 12
40 32 15
40 33 15
40 34 10
40 35 14
40 36 11
40 37 10
40 38 7
40 39 4
41 0 18
41 1 11
41 2 2
41 3 20
41 4 21
41 5 19
41 6 16
41 7 17
41 8 3
41 9 14
41 10 2
41 11 22
41 12 11
41 13 15
41 14 4
41 15 5
41 16 6
41 17 22
41 18 23
41 19 6
41 20 4
41 21 18
41 22 6
41 23 6
41 24 18
41 25 5
41 26 6
41 27 20
41 28 11
41 29 10
41 30 17
41 31 5
41 32 1
41 33 11
41 34 19
41 35 8
41 36 19
41 37 14
41 38 14
41 39 11
41 40 22
42 0 23
42 1 22
42 2 16
42 3 20
42 4 7
42 5 3
42 6 8
42 7 6
42 8 1
42 9 16
42 10 5
42 11 15
42 12 5
42 13 3
42 14 6
42 15 12
42 16 14
42 17 2
42 18 3
42 19 19
42 20 3
42 21 5
42 22 7
42 23 18
42 24 20
42 25 23
42 26 8
42 27 18
42 28 11
42 29 18
42 30 5
42 31 1
42 32 8
42 33 10
42 34 8
42 35 10
42 36 2
42 37 16
42 38 11
42 39 3
42 40 6
42 41 17
43 0 8
43 1 11
43 2 3
43 3 9
43 4 4
43 5 11
43 6 5
43 7 9
43 8 4
43 9 20
43 10 12
43 11 9
43 12 17
43 13 9
43 14 2
43 15 20
43 16 18
43 17 21
43 18 2
43 19 16
43 20 15
43 21 12
43 22 13
43 23 5
43 24 10
43 25 20
43 26 16
43 27 10
43 28 18
43 29 20
43 30 16
43 31 8
43 32 7
43 33 11
43 34 18
43 35 6
43 36 21
43 37 23
43 38 17
43 39 3
43 40 19
43 41 16
43 42 22
44 0 4
44 1 17
44 2 9
44 3 13
44 4 15
44 5 18
44 6 1
44 7 1
44 8 21
44 9 1
44 10 19
44 11 10
44 12 11
44 13 16
44 14 1
44 15 3
44 16 22
44 17 16
44 18 6
44 19 12
44 20 17
44 21 3
44 22 16
44 23 2
44 24 4
44 25 7
44 26 12
44 27 14
44 28 22
44 29 10
44 30 11
44 31 1
44 32 13
44 33 22
44 34 11
44 35 9
44 36 16
44 37 1
44 38 17
44 39 13
44 40 5
44 41 19
44 42 1
44 43 10
45 0 5
45 1 17
45 2 16
45 3 10
45 4 7
45 5 8
45 6 20
45 7 9
45 8 9
45 9 1
45 10 13
45 11 8
45 12 20
45 13 13
45 14 14
45 15 17
45 16 1
45 17 13
45 18 12
45 19 2
45 20 1
45 21 9
45 22 20
45 23 4
45 24 15
45 25 19
45 26 12
45 27 22
45 28 21
45 29 8
45 30 22
45 31 8
45 32 3
45 33 19
45 34 1
45 35 5
45 36 20
45 37 12
45 38 6
45 39 2
45 40 5
45 41 20
45 42 1
45 43 21
45 44 15
46 0 6
46 1 23
46 2 3
46 3 16
46 4 16
46 5 12
46 6 22
46 7 13
46 8 18
46 9 7
46 10 11
46 11 13
46 12 7
46 13 1
46 14 12
46 15 19
46 16 9
46 17 6
46 18 21
46 19 22
46 20 6
46 21 8
46 22 9
46 23 18
46 24 4
46 25 3
46 26 9
46 27 11
46 28 21
46 29 17
46 30 19
46 31 11
46 32 15
46 33 1
46 34 16
46 35 2
46 36 20
46 37 12
46 38 12
46 39 21
46 40 6
46 41 7
46 42 13
46 43 3
46 44 10
46 45 6
47 0 23
47 1 12
47 2 22
47 3 14
47 4 9
47 5 11
47 6 8
47 7 21
47 8 18
47 9 21
47 10 22
47 11 15
47 12 12
47 13 6
47 14 8
47 15 3
47 16 11
47 17 2
47 18 13
47 19 14
47 20 14
47 21 18
47 22 4
47 23 7
47 24 12
47 25 13
47 26 8
47 27 8
47 28 1
47 29 18
47 30 12
47 31 10
47 32 7
47 33 12
47 34 18
47 35 21
47 36 10
47 37 20
47 38 21
47 39 4
47 40 20
47 41 23
47 42 4
47 43 7
47 44 20
47 45 9
47 46 6
48 0 16
48 1 8
48 2 6
48 3 20
48 4 9
48 5 5
48 6 12
48 7 18
48 8 8
48 9 23
48 10 3
48 11 5
48 12 19
48 13 13
48 14 19
48 15 19
48 16 12
48 17 7
48 18 8
48 19 4
48 20 8
48 21 13
48 22 16
48 23 21
48 24 1
48 25 8
48 26 22
48 27 3
48 28 7
48 29 16
48 30 17
48 31 20
48 32 2
48 33 11
48 34 20
48 35 9
48 36 21
48 37 14
48 38 18
48 39 5
48 40 4
48 41 5
48 42 8
48 43 12
48 44 10
48 45 9
48 46 16
48 47 8
49 0 3
49 1 6
49 2 18
49 3 11
49 4 17
49 5 19
49 6 5
49 7 4
49 8 21
49 9 18
49 10 21
49 11 23
49 12 13
49 13 18
49 14 7
49 15 12
49 16 4
49 17 7
49 18 1
49 19 7
49 20 21
49 21 8
49 22 12
49 23 5
49 24 8
49 25 2
49 26 7
49 27 1
49 28 6
49 29 3
49 30 22
49 31 9
49 32 19
49 33 13
49 34 21
49 35 21
49 36 9
49 37 13
49 38 8
49 39 22
49 40 18
49 41 10
49 42 11
49 43 9
49 44 3
49 45 22
49 46 9
49 47 4
49 48 10
50 0 3
50 1 10
50 2 21
50 3 6
50 4 22
50 5 16
50 6 6
50 7 16
50 8 21
50 9 13
50 10 8
50 11 21
50 12 10
50 13 16
50 14 6
50 15 2
50 16 12
50 17 8
50 18 2
50 19 13
50 20 23
50 21 21
50 22 17
50 23 12
50 24 13
50 25 15
50 26 23
50 27 21
50 28 23
50 29 17
50 30 3
50 31 19
50 32 2
50 33 5
50 34 7
50 35 6
50 36 16
50 37 5
50 38 10
50 39 9
50 40 3
50 41 7
50 42 12
50 43 13
50 44 10
50 45 10
50 46 20
50 47 18
50 48 19
50 49 11
51 0 16
51 1 10
51 2 20
51 3 22
51 4 19
51 5 2
51 6 13
51 7 9
51 8 6
51 9 6
51 10 22
51 11 16
51 12 14
51 13 5
51 14 9
51 15 8
51 16 23
51 17 17
51 18 5
51 19 1
51 20 21
51 21 7
51 22 17
51 23 12
51 24 13
51 25 9
51 26 16
51 27 9
51 28 11
51 29 1
51 30 6
51 31 10
51 32 6
51 33 6
51 34 4
51 35 14
51 36 20
51 37 10
51 38 4
51 39 7
51 40 2
51 41 20
51 42 4
51 43 10
51 44 12
51 45 7
51 46 8
51 47 18
51 48 14
51 49 6
51 50 5
52 0 14
52 1 14
52 2 22
52 3 5
52 4 3
52 5 8
52 6 11
52 7 14
52 8 14
52 9 6
52 10 10
52 11 12
52 12 8
52 13 13
52 14 15
52 15 15
52 16 9
52 17 17
52 18 21
52 19 9
52 20 3
52 21 11
52 22 22
52 23 16
52 24 23
52 25 23
52 26 21
52 27 18
52 28 9
52 29 10
52 30 6
52 31 2
52 32 16
52 33 21
52 34 18
52 35 1
52 36 6
52 37 4
52 38 23
52 39 6
52 40 5
52 41 23
52 42 7
52 43 13
52 44 11
52 45 16
52 46 15
52 47 17
52 48 11
52 49 2
52 50 7
52 51 2
53 0 19
53 1 2
53 2 14
53 3 22
53 4 12
53 5 4
53 6 4
53 7 21
53 8 9
53 9 5
53 10 2
53 11 12
53 12 17
53 13 8
53 14 4
53 15 8
53 16 5
53 17 6
53 18 14
53 19 23
53 20 10
53 21 18
53 22 18
53 23 12
53 24 12
53 25 5
53 26 19
53 27 20
53 28 15
53 29 20
53 30 1
53 31 14
53 32 15
53 33 23
53 34 15
53 35 12
53 36 9
53 37 16
53 38 13
53 39 16
53 40 9
53 41 17
53 42 9
53 43 6
53 44 22
53 45 3
53 46 19
53 47 13
53 48 16
53 49 16
53 50 5
53 51 22
53 52 19
54 0 13
54 1 1
54 2 8
54 3 11
54 4 5
54 5 13
54 6 9
54 7 14
54 8 7
54 9 5
54 10 10
54 11 8
54 12 8
54 13 23
54 14 16
54 15 8
54 16 13
54 17 2
54 18 18
54 19 9
54 20 11
54 21 3
54 22 14
54 23 12
54 24 23
54 25 15
54 26 5
54 27 1
54 28 20
54 29 12
54 30 23
54 31 9
54 32 22
54 33 6
54 34 5
54 35 1
54 36 18
54 37 4
54 38 3
54 39 22
54 40 5
54 41 1
54 42 21
54 43 9
54 44 22
54 45 20
54 46 4
54 47 18
54 48 13
54 49 12
54 50 22
54 51 6
54 52 7
54 53 15
55 0 6
55 1 14
55 2 15
55 3 5
55 4 7
55 5 8
55 6 3
55 7 21
55 8 2
55 9 20
55 10 16
55 11 1
55 12 12
55 13 15
55 14 16
55 15 23
55 16 1
55 17 13
55 18 21
55 19 14
55 20 18
55 21 21
55 22 23
55 23 14
55 24 16
55 25 16
55 26 3
55 27 12
55 28 1
55 29 15
55 30 2
55 31 2
55 32 20
55 33 18
55 34 12
55 35 16
55 36 8
55 37 12
55 38 16
55 39 16
55 40 3
55 41 14
55 42 12
55 43 9
55 44 6
55 45 16
55 46 3
55 47 13
55 48 20
55 49 13
55 50 16
55 51 8
55 52 23
55 53 4
55 54 16
56 0 8
56 1 17
56 2 23
56 3 21
56 4 17
56 5 6
56 6 3
56 7 9
56 8 6
56 9 16
56 10 20
56 11 12
56 12 23
56 13 13
56 14 13
56 15 21
56 16 8
56 17 13
56 18 2
56 19 15
56 20 21
56 21 20
56 22 15
56 23 3
56 24 20
56 25 18
56 26 16
56 27 13
56 28 3
56 29 7
56 30 12
56 31 20
56 32 14
56 33 2
56 34 13
56 35 9
56 36 23
56 37 2
56 38 14
56 39 2
56 40 22
56 41 8
56 42 7
56 43 12
56 44 3
56 45 1
56 46 16
56 47 6
56 48 12
56 49 1
56 50 17
56 51 12
56 52 22
56 53 19
56 54 6
56 55 13
57 0 7
57 1 3
57 2 3
57 3 1
57 4 7
57 5 17
57 6 12
57 7 17
57 8 22
57 9 14
57 10 11
57 11 15
57 12 12
57 13 19
57 14 5
57 15 23
57 16 4
57 17 5
57 18 7
57 19 2
57 20 3
57 21 22
57 22 10
57 23 20
57 24 6
57 25 23
57 26 6
57 27 11
57 28 20
57 29 4
57 30 12
57 31 12
57 32 3
57 33 23
57 34 1
57 35 10
57 36 21
57 37 15
57 38 6
57 39 11
57 40 18
57 41 19
57 42 6
57 43 20
57 44 23
57 45 8
57 46 12
57 47 17
57 48 23
57 49 10
57 50 19
57 51 5
57 52 9
57 53 10
57 54 20
57 55 2
57 56 6
58 0 9
58 1 20
58 2 6
58 3 22
58 4 10
58 5 5
58 6 2
58 7 6
58 8 19
58 9 9
58 10 22
58 11 22
58 12 22
58 13 7
58 14 20
58 15 17
58 16 14
58 17 16
58 18 4
58 19 17
58 20 15
58 21 19
58 22 1
58 23 4
58 24 8
58 25 23
58 26 19
58 27 17
58 28 7
58 29 17
58 30 8
58 31 18
58 32 11
58 33 6
58 34 22
58 35 21
58 36 23
58 37 15
58 38 22
58 39 18
58 40 5
58 41 7
58 42 23
58 43 8
58 44 2
58 45 3
58 46 23
58 47 15
58 48 18
58 49 10
58 50 2
58 51 21
58 52 12
58 53 3
58 54 17
58 55 18
58 56 3
58 57 1
59 0 11
59 1 12
59 2 11
59 3 15
59 4 14
59 5 1
59 6 3
59 7 19
59 8 7
59 9 14
59 10 2
59 11 2
59 12 4
59 13 18
59 14 11
59 15 4
59 16 23
59 17 6
59 18 11
59 19 22
59 20 23
59 21 20
59 22 20
59 23 18
59 24 8
59 25 15
59 26 7
59 27 9
59 28 4
59 29 18
59 30 13
59 31 11
59 32 5
59 33 23
59 34 19
59 35 2
59 36 3
59 37 7
59 38 19
59 39 22
59 40 15
59 41 15
59 42 23
59 43 18
59 44 15
59 45 19
59 46 8
59 47 20
59 48 2
59 49 5
59 50 9
59 51 4
59 52 10
59 53 7
59 54 15
59 55 1
59 56 12
59 57 5
59 58 10
60 0 18
60 1 2
60 2 1
60 3 17
60 4 11
60 5 20
60 6 4
60 7 17
60 8 19
60 9 3
60 10 23
60 11 3
60 12 22
60 13 10
60 14 7
60 15 4
60 16 4
60 17 21
60 18 20
60 19 11
60 20 16
60 21 15
60 22 2
60 23 7
60 24 8
60 25 6
60 26 15
60 27 21
60 28 15
60 29 15
60 30 2
60 31 3
60 32 12
60 33 22
60 34 9
60 35 12
60 36 16
60 37 23
60 38 5
60 39 22
60 40 18
60 41 10
60 42 19
60 43 9
60 44 8
60 45 21
60 46 14
60 47 14
60 48 1
60 49 19
60 50 9
60 51 8
60 52 19
60 53 1
60 54 13
60 55 20
60 56 10
60 57 7
60 58 12
60 59 23
61 0 8
61 1 18
61 2 5
61 3 1
61 4 11
61 5 1
61 6 22
61 7 6
61 8 16
61 9 11
61 10 12
61 11 19
61 12 10
61 13 1
61 14 1
61 15 10
61 16 23
61 17 18
61 18 16
61 19 13
61 20 15
61 21 1
61 22 20
61 23 18
61 24 4
61 25 6
61 26 1
61 27 9
61 28 21
61 29 1
61 30 14
61 31 14
61 32 5
61 33 22
61 34 4
61 35 23
61 36 21
61 37 16
61 38 2
61 39 14
61 40 22
61 41 1
61 42 19
61 43 11
61 44 20
61 45 22
61 46 14
61 47 4
61 48 9
61 49 19
61 50 20
61 51 5
61 52 22
61 53 20
61 54 12
61 55 13
61 56 21
61 57 12
61 58 21
61 59 10
61 60 22
62 0 23
62 1 19
62 2 5
62 3 22
62 4 10
62 5 6
62 6 12
62 7 21
62 8 6
62 9 19
62 10 23
62 11 3
62 12 2
62 13 9
62 14 23
62 15 20
62 16 14
62 17 3
62 18 5
62 19 12
62 20 15
62 21 15
62 22 10
62 23 14
62 24 17
62 25 18
62 26 5
62 27 3
62 28 23
62 29 14
62 30 16
62 31 13
62 32 19
62 33 9
62 34 2
62 35 23
62 36 16
62 37 15
62 38 14
62 39 8
62 40 13
62 41 17
62 42 8
62 43 3
62 44 7
62 45 6
62 46 11
62 47 4
62 48 17
62 49 8
62 50 17
62 51 6
62 52 5
62 53 5
62 54 4
62 55 9
62 56 3
62 57 7
62 58 11
62 59 13
62 60 11
62 61 22
63 0 11
63 1 17
63 2 12
63 3 5
63 4 14
63 5 16
63 6 23
63 7 15
63 8 5
63 9 6
63 10 16
63 11 8
63 12 19
63 13 5
63 14 4
63 15 4
63 16 7
63 17 14
63 18 23
63 19 1
63 20 18
63 21 10
63 22 14
63 23 5
63 24 10
63 25 1
63 26 20
63 27 4
63 28 6
63 29 5
63 30 23
63 31 3
63 32 8
63 33 15
63 34 9
63 35 18
63 36 1
63 37 9
63 38 20
63 39 16
63 40 4
63 41 18
63 42 13
63 43 1
63 44 6
63 45 9
63 46 21
63 47 1
63 48 6
63 49 6
63 50 11
63 51 5
63 52 6
63 53 1
63 54 16
63 55 6
63 56 16
63 57 14
63 58 2
63 59 21
63 60 20
63 61 21
63 62 11
64 0 20
64 1 21
64 2 19
64 3 13
64 4 11
64 5 5
64 6 17
64 7 2
64 8 15
64 9 14
64 10 11
64 11 15
64 12 10
64 13 1
64 14 6
64 15 18
64 16 20
64 17 15
64 18 12
64 19 10
64 20 9
64 21 10
64 22 7
64 23 14
64 24 17
64 25 16
64 26 15
64 27 18
64 28 23
64 29 3
64 30 6
64 31 7
64 32 17
64 33 10
64 34 3
64 35 16
64 36 16
64 37 7
64 38 16
64 39 22
64 40 21
64 41 17
64 42 7
64 43 13
64 44 9
64 45 16
64 46 10
64 47 2
64 48 21
64 49 11
64 50 9
64 51 2
64 52 16
64 53 14
64 54 22
64 55 15
64 56 6
64 57 22
64 58 5
64 59 8
64 60 12
64 61 16
64 62 18
64 63 6
65 0 3
65 1 7
65 2 5
65 3 13
65 4 23
65 5 3
65 6 16
65 7 6
65 8 12
65 9 10
65 10 23
65 11 16
65 12 6
65 13 12
65 14 13
65 15 14
65 16 1
65 17 16
65 18 13
65 19 1
65 20 20
65 21 16
65 22 6
65 23 17
65 24 15
65 25 15
65 26 4
65 27 11
65 28 19
65 29 19
65 30 7
65 31 18
65 32 11
65 33 1
65 34 9
65 35 20
65 36 6
65 37 5
65 38 20
65 39 20
65 40 9
65 41 21
65 42 1
65 43 2
65 44 1
65 45 4
65 46 9
65 47 7
65 48 14
65 49 2
65 50 15
65 51 2
65 52 16
65 53 2
65 54 6
65 55 5
65 56 4
65 57 1
65 58 6
65 59 12
65 60 7
65 61 3
65 62 16
65 63 23
65 64 11
66 0 16
66 1 22
66 2 15
66 3 19
66 4 3
66 5 6
66 6 4
66 7 9
66 8 10
66 9 22
66 10 19
66 11 9
66 12 12
66 13 6
66 14 22
66 15 19
66 16 20
66 17 3
66 18 20
66 19 21
66 20 3
66 21 22
66 22 9
66 23 16
66 24 6
66 25 5
66 26 11
66 27 18
66 28 1
66 29 12
66 30 4
66 31 3
66 32 11
66 33 7
66 34 5
66 35 16
66 36 9
66 37 18
66 38 3
66 39 15
66 40 21
66 41 8
66 42 17
66 43 23
66 44 2
66 45 19
66 46 23
66 47 21
66 48 8
66 49 19
66 50 10
66 51 12
66 52 19
66 53 7
66 54 7
66 55 17
66 56 22
66 57 1
66 58 7
66 59 11
66 60 15
66 61 19
66 62 9
66 63 2
66 64 14
66 65 1
67 0 14
67 1 15
67 2 21
67 3 13
67 4 11
67 5 11
67 6 15
67 7 3
67 8 5
67 9 12
67 10 19
67 11 12
67 12 20
67 13 1
67 14 11
67 15 17
67 16 22
67 17 21
67 18 10
67 19 14
67 20 5
67 21 19
67 22 20
67 23 3
67 24 21
67 25 10
67 26 5
67 27 9
67 28 5
67 29 11
67 30 20
67 31 6
67 32 8
67 33 11
67 34 19
67 35 2
67 36 17
67 37 18
67 38 19
67 39 15
67 40 17
67 41 23
67 42 18
67 43 15
67 44 21
67 45 18
67 46 17
67 47 11
67 48 10
67 49 22
67 50 8
67 51 10
67 52 12
67 53 9
67 54 13
67 55 8
67 56 12
67 57 8
67 58 21
67 59 22
67 60 9
67 61 10
67 62 5
67 63 11
67 64 23
67 65 21
67 66 23
68 0 3
68 1 16
68 2 21
68 3 7
68 4 20
68 5 11
68 6 17
68 7 16
68 8 10
68 9 21
68 10 23
68 11 13
68 12 4
68 13 7
68 14 5
68 15 10
68 16 23
68 17 4
68 18 4
68 19 3
68 20 6
68 21 11
68 22 22
68 23 12
68 24 10
68 25 9
68 26 23
68 27 12
68 28 3
68 29 22
68 30 2
68 31 20
68 32 5
68 33 5
68 34 4
68 35 5
68 36 11
68 37 4
68 38 14
68 39 16
68 40 6
68 41 18
68 42 5
68 43 2
68 44 20
68 45 23
68 46 2
68 47 21
68 48 2
68 49 9
68 50 5
68 51 17
68 52 6
68 53 22
68 54 3
68 55 20
68 56 17
68 57 7
68 58 8
68 59 5
68 60 8
68 61 23
68 62 12
68 63 20
68 64 13
68 65 14
68 66 18
68 67 16
